seed= 2052018 ;
N= 10 ;
M= 2 ;
F= 2 ;
K= 4 ;
T= 42 ;

p=[ 4 4 4 4 4 10 10 10 10 10 ];
r=[ 1 4 6 3 1 6 3 7 0 5 ];
d=[ 7 10 10 0 7 2 4 0 8 13 ];
s=[ 1 1 1 1 1 1 1 1 1 1 ];
w=[ 1 4 5 3 3 4 1 5 4 3 ];
f=[ 1 1 1 1 1 2 2 2 2 2 ];

e1=[ 10 10 10 10 10 10 10 10 10 10 10 10 10 10 10 10 10 10 10 10 10 8 8 8 8 8 8 8 8 8 8 8 8 8 8 8 8 8 8 8 8 8 ];
e2=[ 10 10 10 10 10 10 10 10 10 10 10 10 10 10 9 9 9 9 9 9 9 8 8 8 8 8 8 8 8 8 8 8 8 8 8 9 9 9 9 9 9 9 ];